p cnf 7230 16
47 -2045 0
47 1746 2046 0
-47 -1746 2044 0
1746 -2045 0
-2048 2049 0
-57 -1766 2048 0
57 -2049 0
2043 -2045 0
-1746 -2047 0
2049 -2051 0
1766 -2049 0
-2044 2045 0
-2046 2047 0
-47 -2047 0
2042 -2043 0
-2042 2043 0
